; benchmark generated from python API
(set-info :status unknown)
(declare-fun S_3 () Real)
(declare-fun S_1 () Real)
(declare-fun S_4 () Real)
(declare-fun A_3 () Real)
(declare-fun L_2 () Real)
(declare-fun S_0 () Real)
(declare-fun A_0 () Real)
(declare-fun L_0 () Real)
(declare-fun A_1 () Real)
(declare-fun L0 () Real)
(declare-fun A_2 () Real)
(declare-fun L_1 () Real)
(declare-fun S_2 () Real)
(declare-fun A_4 () Real)
(assert
 (let (($x5393 (<= (+ L_0 (* (- 1.0) S_3) (* (- 1.0) A_0) (* 2.0 S_1)) 0.0)))
 (let (($x1816 (<= (+ S_1 (* (- 1.0) A_1) L_0) 0.0)))
 (let (($x37 (>= L0 0.0)))
 (let (($x1823 (<= (+ S_0 L_0 (* (- 1.0) A_0)) 0.0)))
 (let ((?x321 (* (- 1.0) A_3)))
 (let ((?x5515 (* (/ 1.0 2.0) S_0)))
 (let ((?x13166 (* (- (/ 1.0 2.0)) A_2)))
 (let ((?x13059 (* (/ 3.0 2.0) L_2)))
 (let ((?x253 (* (- 1.0) A_2)))
 (let ((?x631 (* (- 1.0) L_0)))
 (let ((?x1867 (* 2.0 L_2)))
 (let (($x64 (= L_2 L_1)))
 (let (($x19141 (or $x64 (<= (+ ?x1867 ?x631 ?x253 A_1 ?x321 S_4) (- 5.0)) (<= (+ ?x13059 ?x13166 S_4 ?x5515 ?x321) (- (/ 5.0 2.0))))))
 (let (($x12539 (<= (+ ?x1867 (* (- 2.0) A_2) (* 3.0 S_1) (* (- 1.0) S_0)) (- 10.0))))
 (let (($x1477 (<= (+ A_1 ?x631 (* (- 1.0) S_2)) 0.0)))
 (let (($x18177 (or (<= (+ L_2 ?x321 S_4 ?x5515 (* (- (/ 1.0 2.0)) S_3)) 0.0) (<= (+ L_2 ?x631 S_4 A_1 ?x321 (* (- 1.0) S_3)) 0.0))))
 (let (($x19091 (or $x64 (<= (+ L_2 ?x631 ?x253 A_1) (- 10.0)) (<= (+ (* (/ 1.0 2.0) L_2) ?x13166 ?x5515) (- (/ 15.0 2.0))))))
 (let (($x15387 (<= (+ ?x13059 (* (- (/ 3.0 2.0)) A_2) S_4 ?x5515 A_3 (* (- 1.0) A_4)) (- (/ 5.0 2.0)))))
 (let (($x8300 (<= (+ ?x1867 ?x631 (* (- 2.0) A_2) A_1 A_3 S_4 (* (- 1.0) A_4)) (- 5.0))))
 (let ((?x528 (* (- 1.0) S_3)))
 (let ((?x323 (* (- 1.0) A_4)))
 (let (($x19083 (or $x64 (<= (+ L_2 ?x253 A_3 S_4 ?x5515 ?x323 (* (- (/ 1.0 2.0)) S_3)) 0.0) (<= (+ L_2 ?x631 ?x253 A_1 A_3 S_4 ?x323 ?x528) 0.0))))
 (let ((?x2468 (* 2.0 A_1)))
 (let ((?x4615 (* (- 3.0) A_2)))
 (let ((?x4451 (* (- 2.0) L_0)))
 (let ((?x4993 (* 3.0 L_2)))
 (let (($x19082 (or $x64 (<= (+ ?x4993 ?x4451 ?x4615 ?x2468 S_4) (- 15.0)) (<= (+ ?x1867 (* (- 2.0) A_2) S_4 S_0) (- 10.0)))))
 (let (($x12631 (or (<= (+ (* (- (/ 1.0 2.0)) S_3) ?x5515) (- 5.0)) (<= (+ ?x631 A_1 ?x528) (- 5.0)))))
 (let (($x13788 (or $x64 (<= (+ L_2 L_0 ?x253 (* (- 1.0) A_0) (* 2.0 S_1)) (- 5.0)))))
 (let (($x16418 (or $x64 (<= (+ ?x1867 (* (- 2.0) A_2) A_3 S_4 S_1 ?x323) (- 5.0)))))
 (let (($x2203 (<= (+ (* (- 2.0) L_1) ?x1867 (* (- 2.0) A_2) ?x2468 S_4 ?x528) 0.0)))
 (let ((?x316 (* (- 1.0) S_1)))
 (let ((?x2483 (* 4.0 A_1)))
 (let ((?x5065 (* (- 4.0) A_2)))
 (let ((?x5640 (* 4.0 L_2)))
 (let ((?x1841 (* (- 4.0) L_1)))
 (let (($x2237 (<= (+ (* 4.0 L_1) S_4 (* 3.0 S_0) (* (- 4.0) A_1)) (- 20.0))))
 (let (($x54 (= L_1 L_0)))
 (let (($x25087 (or $x64 (<= (+ (* (- 1.0) L_1) ?x1867 ?x253 A_1 ?x321 S_4) 0.0))))
 (let ((?x5160 (* 3.0 A_1)))
 (let ((?x331 (* (- 1.0) S_2)))
 (let ((?x835 (* (- 3.0) L_1)))
 (let ((?x1096 (* (- 1.0) S_0)))
 (let ((?x5444 (* 5.0 A_1)))
 (let ((?x6959 (* (- 5.0) A_2)))
 (let ((?x6072 (* 5.0 L_2)))
 (let ((?x942 (* (- 5.0) L_1)))
 (let (($x2287 (= L_2 L_0)))
 (let (($x1195 (not (= L_0 L_1))))
 (let (($x16133 (or $x1195 $x2287 (<= (+ (* (- 3.0) L_0) ?x4993 ?x4615 ?x331 ?x5160 S_4) 0.0))))
 (let (($x12227 (<= (+ L_1 (* (- 1.0) S_4) (* 2.0 S_2) (* (- 1.0) A_1)) (- 5.0))))
 (let (($x889 (>= S_4 (+ A_3 (* (- 1.0) L_2)))))
 (let (($x9523 (<= (+ L_0 (* 2.0 S_2) (* (- 1.0) S_4) (* (- 1.0) A_1)) 0.0)))
 (let (($x12793 (or $x1195 $x2287 (<= (+ (* (- 5.0) L_0) ?x6072 ?x6959 ?x5444 S_4 ?x1096) 0.0))))
 (let ((?x2493 (* (- 3.0) A_1)))
 (let ((?x6312 (* 2.0 S_0)))
 (let ((?x3319 (* 3.0 L_1)))
 (let (($x25297 (or $x54 (<= (+ (* 2.0 L_1) S_4 ?x321 S_0 (* (- 1.0) A_1)) (- 5.0)))))
 (let (($x14060 (or $x54 (<= (+ (* 2.0 L_1) S_2 S_0 (* (- 2.0) A_1)) (- 10.0)))))
 (let (($x3516 (or (<= (+ (* (- 2.0) S_3) S_4 S_0) 0.0) (<= (+ ?x4451 ?x2468 (* (- 3.0) S_3) S_4) 0.0))))
 (let (($x7236 (<= (+ (* (- 1.0) L_1) ?x1867 (* (- 2.0) A_2) A_1 A_3 S_4 ?x323) 0.0)))
 (let (($x25089 (or $x64 (<= (+ ?x1841 L_0 ?x5640 ?x5065 ?x2483 (* (- 1.0) A_0) S_4) 0.0))))
 (let (($x17968 (or $x64 $x1477 (<= (+ L_2 ?x253 ?x331 S_4 S_0 A_3 ?x323) 0.0))))
 (let (($x6134 (<= (+ (* (- 2.0) L_1) ?x1867 (* (- 2.0) A_2) S_2 ?x2468 ?x316) 0.0)))
 (let ((?x524 (* (- 1.0) S_4)))
 (let ((?x4452 (* (- 3.0) L_2)))
 (let ((?x5912 (* 3.0 A_2)))
 (let (($x871 (<= L_1 L_0)))
 (let ((?x2659 (* (- 2.0) A_1)))
 (let ((?x2401 (* (- 2.0) L_2)))
 (let ((?x4442 (* 2.0 A_2)))
 (let ((?x3651 (* 2.0 L_1)))
 (let (($x10753 (<= (+ L_1 A_2 S_2 (* (- 1.0) L_2) (* (- 1.0) A_1) ?x524) 0.0)))
 (let (($x9969 (>= S_4 (+ A_3 (* (- 1.0) L_1)))))
 (let (($x1197 (not (= L_1 L_2))))
 (let (($x9953 (<= (+ (* (- (/ 1.0 2.0)) S_4) (* (/ 1.0 2.0) S_1) (* (- 1.0) A_1) A_2) 0.0)))
 (let (($x25060 (or $x64 (<= (+ ?x835 L_0 ?x4993 ?x4615 ?x5160 (* (- 1.0) A_0) S_3) 0.0))))
 (let (($x8034 (<= (+ L_0 (* (- (/ 1.0 2.0)) S_4) (* (- 1.0) A_0) (* (/ 3.0 2.0) S_1)) 0.0)))
 (let (($x18432 (or $x1195 $x2287 (<= (+ ?x4451 ?x4993 ?x4615 ?x5160 (* (- 1.0) A_0) S_3) 0.0))))
 (let (($x17595 (or $x1195 (<= (+ ?x631 ?x1867 (* (- 2.0) A_2) A_1 A_3 S_4 ?x323) 0.0) $x2287)))
 (let (($x20572 (or $x871 (<= (+ L_1 ?x528 S_4 A_3 S_0 ?x323 (* (- 1.0) A_1)) 0.0))))
 (let ((?x237 (* (- 1.0) A_1)))
 (let ((?x8150 (* 2.0 S_1)))
 (let ((?x6656 (* (- 2.0) S_3)))
 (let (($x25058 (or $x54 (<= (+ L_1 S_4 (* (- 2.0) S_2) A_3 ?x6312 ?x323 ?x237) 0.0))))
 (let (($x951 (<= (+ (* (- 2.0) L_1) ?x1867 (* (- 2.0) A_2) ?x2468 ?x1096 S_1) 0.0)))
 (let ((?x1876 (* (- 1.0) A_0)))
 (let ((?x832 (* (- 2.0) A_2)))
 (let ((?x992 (* (- 2.0) L_1)))
 (let (($x4934 (or $x889 (<= (+ (* (- (/ 1.0 3.0)) S_4) (* (/ 1.0 3.0) S_0)) (- 5.0)) (<= (+ (* (- (/ 1.0 2.0)) L_0) (* (- (/ 1.0 2.0)) S_4) (* (/ 1.0 2.0) A_1)) (- 5.0)))))
 (let (($x8223 (or $x64 (<= (+ (* (- 1.0) L_1) L_0 L_2 ?x253 A_1 ?x1876 S_1) 0.0))))
 (let (($x8402 (or $x889 (<= (+ L_0 (* 3.0 S_2) (* (- 2.0) S_4) ?x1876) 0.0))))
 (let (($x124 (>= A_3 A_2)))
 (let (($x4764 (or $x54 (<= (+ L_1 (* (- 1.0) L_2) A_2 ?x331 ?x237 S_0) 0.0))))
 (let (($x3503 (or $x54 (<= (+ L_1 (* (- 1.0) L_2) A_2 ?x237 S_1 ?x528) 0.0))))
 (let (($x1404 (or $x54 (not $x871))))
 (let (($x805 (<= (+ A_1 (* (- 1.0) L_1)) S_3)))
 (let (($x125 (>= A_4 A_3)))
 (let (($x122 (>= A_1 A_0)))
 (let (($x1133 (or $x64 (not (<= L_2 L_1)))))
 (let (($x117 (>= S_3 S_2)))
 (let (($x915 (not (<= (+ A_2 (* (- 1.0) L_2)) S_3))))
 (let (($x114 (>= S_2 S_1)))
 (let (($x111 (>= S_1 S_0)))
 (let (($x36 (>= L_0 L0)))
 (let (($x120 (>= S_4 S_3)))
 (let (($x3069 (<= S_4 (+ A_4 (* (- 1.0) L_2)))))
 (and $x3069 $x120 $x36 $x111 $x114 $x915 $x117 $x1133 $x122 $x125 $x805 $x1404 $x3503 $x4764 $x124 (or $x64 (<= (+ L_2 ?x253 S_2) (- 5.0))) (or $x889 (<= (+ S_2 ?x524) (- 5.0))) (or $x889 (<= (+ (* 3.0 S_2) (* (- 2.0) S_4) ?x316) 0.0)) (or $x889 (<= (+ (* 4.0 S_2) (* (- 3.0) S_4) ?x1096) 0.0)) $x8402 (or $x54 (<= (+ L_1 S_1 ?x237) (- 5.0))) (or $x64 (<= (+ ?x992 ?x1867 ?x832 ?x331 ?x2468 S_3) 0.0)) $x8223 (or $x1195 $x2287 (<= (+ ?x631 L_2 ?x253 A_1) (- 5.0))) (or $x1477 (<= (+ ?x331 S_0) (- 5.0))) $x4934 (or $x54 (<= (+ ?x3651 ?x2401 ?x4442 ?x2659 S_0 ?x528) 0.0)) (or $x64 (<= (+ ?x992 L_0 ?x1867 ?x832 S_2 ?x2468 ?x1876) 0.0)) (or $x64 (<= (+ ?x835 ?x4993 ?x4615 S_2 ?x5160 ?x1096) 0.0)) (or $x64 $x951) (or $x54 (<= (+ ?x3651 A_2 (* (- 1.0) L_2) ?x2659 S_0) (- 5.0))) (or $x1477 (<= (+ S_4 (* (- 4.0) S_2) (* 3.0 S_0)) 0.0)) $x25058 (or $x54 (<= (+ L_1 ?x6656 S_4 A_3 ?x8150 ?x323 ?x237) 0.0)) $x20572 $x17595 $x18432 (or $x889 $x8034) (or $x64 (<= (+ ?x1841 ?x5640 ?x5065 ?x2483 ?x1096 S_3) 0.0)) (or $x889 (<= (+ ?x524 ?x1096 ?x8150) 0.0)) (or $x1477 (<= (+ S_3 (* (- 3.0) S_2) ?x6312) 0.0)) (or $x64 (<= (+ ?x835 ?x4993 ?x4615 ?x5160 ?x316 S_3) 0.0)) $x25060 (or $x54 $x1197 $x9953 $x9969) (or $x871 $x1197 $x9969 (<= (+ ?x5912 ?x2493 ?x524 S_0) 0.0)) (or $x54 $x889 $x10753) (or $x54 $x889 (<= (+ ?x3651 ?x4442 ?x2401 ?x2659 ?x524 S_1) 0.0)) (or $x871 $x889 (<= (+ ?x3319 ?x5912 ?x4452 ?x2493 ?x524 S_0) 0.0)) (or $x64 $x6134) (or $x64 (<= (+ L_2 ?x253 S_4 S_1 A_3 ?x323 ?x528) 0.0)) $x17968 $x25089 (or $x64 $x7236) $x3516 (or (<= (+ (* (- (/ 1.0 2.0)) S_4) (* (/ 1.0 2.0) S_1)) (- 5.0)) $x889) (or $x54 (<= (+ L_1 S_0 ?x237) (- 10.0))) $x14060 $x25297 (or $x54 (<= (+ ?x3319 S_4 A_3 ?x6312 ?x323 ?x2493) (- 10.0))) $x12793 (or $x889 $x9523) (or $x54 $x889 $x12227) (or $x64 (<= (+ (* (- 1.0) L_1) L_2 ?x253 A_1) (- 5.0))) $x16133 (or $x64 (<= (+ ?x942 ?x6072 ?x6959 ?x5444 S_4 ?x1096) 0.0)) (or $x64 (<= (+ ?x835 ?x4993 ?x4615 ?x331 ?x5160 S_4) 0.0)) (or $x64 (<= (+ ?x992 ?x4615 ?x4993 ?x2468 S_4) (- 5.0))) $x25087 (or $x54 $x2237) (or $x64 (<= (+ ?x1841 ?x5640 ?x5065 ?x2483 S_4 ?x316) 0.0)) (or $x64 $x2203) $x16418 (or $x64 (<= (+ L_2 ?x253 S_1) (- 10.0))) $x13788 (or $x64 (<= (+ ?x4993 ?x4615 S_4 ?x8150) (- 15.0))) (or $x64 (<= (+ ?x1867 ?x253 ?x321 S_4 S_1) (- 5.0))) $x12631 $x19082 $x19083 (or $x64 $x8300 $x15387) $x19091 $x18177 (or $x1477 (<= (+ L_2 ?x331 ?x321 S_4 S_0) 0.0)) (or $x64 $x12539) $x19141 $x1823 $x37 $x1816 (<= (+ ?x528 S_1) (- 5.0)) $x5393 (<= (+ ?x6656 ?x1096 (* 3.0 S_1)) 0.0) (<= (+ (* (- 3.0) S_3) S_4 ?x8150) 0.0) (<= (+ L_2 ?x321 S_4 S_1 ?x528) 0.0))))))))))))))))))))))))))))))))))))))))))))))))))))))))))))))))))))))))))))))))))))))))))))))))))))))))))))))
(check-sat)
